
Gurobi 7.5.2 (linux64) logging started Sat Jul  7 17:10:54 2018

Changed value of parameter LogFile to result/ilp/simNo_5-n_100-m_40-s_4-minVAF_0.05-cov_10000-k_1-fn_0.25-fp_0.0001-na_0.15.ILP.gurobiSolverLog
   Prev: gurobi.log  Default: 
Changed value of parameter TimeLimit to 86400.0
   Prev: 1e+100  Min: 0.0  Max: 1e+100  Default: 1e+100
Optimize a model with 639293 rows, 10765 columns and 1940420 nonzeros
Variable types: 0 continuous, 10765 integer (10765 binary)
Coefficient statistics:
  Matrix range     [1e-05, 4e+00]
  Objective range  [1e+00, 2e+01]
  Bounds range     [1e+00, 1e+00]
  RHS range        [8e-02, 2e+00]
Found heuristic solution: objective -6778.736910
Presolve removed 135384 rows and 1017 columns (presolve time = 5s) ...
Presolve removed 137312 rows and 1059 columns (presolve time = 11s) ...
Presolve removed 137924 rows and 1059 columns (presolve time = 18s) ...
Presolve removed 199124 rows and 1671 columns (presolve time = 20s) ...
Presolve removed 199124 rows and 1671 columns (presolve time = 25s) ...
Presolve removed 199124 rows and 1671 columns
Presolve time: 26.66s
Presolved: 440169 rows, 9094 columns, 1323468 nonzeros
Variable types: 0 continuous, 9094 integer (9094 binary)
Presolved: 9094 rows, 449263 columns, 1332562 nonzeros

Presolve removed 9094 rows and 449263 columns

Root simplex log...

Iteration    Objective       Primal Inf.    Dual Inf.      Time
       0    2.2659114e+01   0.000000e+00   3.957300e+04     32s
   16513   -1.6489801e+02   0.000000e+00   4.938000e+02     36s
   16527   -1.6481351e+02   0.000000e+00   0.000000e+00     36s
   16527   -1.6481351e+02   0.000000e+00   0.000000e+00     37s

Root relaxation: objective -1.648135e+02, 16527 iterations, 8.74 seconds
Total elapsed time = 55.21s
Total elapsed time = 73.71s

    Nodes    |    Current Node    |     Objective Bounds      |     Work
 Expl Unexpl |  Obj  Depth IntInf | Incumbent    BestBd   Gap | It/Node Time

     0     0 -164.81351    0  693 -6778.7369 -164.81351  97.6%     -   82s
H    0     0                    -227.1718265 -164.81351  27.4%     -   88s
H    0     0                    -190.2501040 -164.81351  13.4%     -   92s
     0     0 -167.46744    0  711 -190.25010 -167.46744  12.0%     -  108s
H    0     0                    -189.0642430 -167.46744  11.4%     -  119s
     0     0 -167.79478    0  752 -189.06424 -167.79478  11.2%     -  124s
     0     0 -167.84460    0  770 -189.06424 -167.84460  11.2%     -  129s
     0     0 -167.84960    0  741 -189.06424 -167.84960  11.2%     -  132s
     0     0 -169.00491    0  792 -189.06424 -169.00491  10.6%     -  145s
     0     0 -169.74527    0  791 -189.06424 -169.74527  10.2%     -  160s
     0     0 -169.81232    0  790 -189.06424 -169.81232  10.2%     -  164s
     0     0 -169.81970    0  789 -189.06424 -169.81970  10.2%     -  169s
     0     0 -169.81970    0  785 -189.06424 -169.81970  10.2%     -  172s
     0     0 -170.29037    0  791 -189.06424 -170.29037  9.93%     -  181s
     0     0 -170.29037    0  793 -189.06424 -170.29037  9.93%     -  186s
     0     0 -171.19106    0  721 -189.06424 -171.19106  9.45%     -  196s
     0     0 -171.23692    0  724 -189.06424 -171.23692  9.43%     -  207s
     0     0 -171.23692    0  727 -189.06424 -171.23692  9.43%     -  211s
     0     0 -171.40069    0  797 -189.06424 -171.40069  9.34%     -  220s
     0     0 -171.42190    0  799 -189.06424 -171.42190  9.33%     -  226s
     0     0 -171.42190    0  799 -189.06424 -171.42190  9.33%     -  229s
     0     0 -172.69951    0  755 -189.06424 -172.69951  8.66%     -  240s
     0     0 -172.87226    0  822 -189.06424 -172.87226  8.56%     -  249s
     0     0 -172.87226    0  827 -189.06424 -172.87226  8.56%     -  253s
     0     0 -173.92313    0  812 -189.06424 -173.92313  8.01%     -  263s
     0     0 -174.29474    0  832 -189.06424 -174.29474  7.81%     -  276s
     0     0 -174.35533    0  830 -189.06424 -174.35533  7.78%     -  281s
     0     0 -174.35533    0  837 -189.06424 -174.35533  7.78%     -  287s
     0     0 -174.35533    0  829 -189.06424 -174.35533  7.78%     -  293s
     0     0 -174.92327    0  796 -189.06424 -174.92327  7.48%     -  302s
     0     0 -174.92327    0  797 -189.06424 -174.92327  7.48%     -  308s
     0     0 -175.05864    0  836 -189.06424 -175.05864  7.41%     -  319s
     0     0 -175.05864    0  839 -189.06424 -175.05864  7.41%     -  325s
     0     0 -175.41559    0  737 -189.06424 -175.41559  7.22%     -  334s
     0     0 -175.51682    0  783 -189.06424 -175.51682  7.17%     -  343s
     0     0 -175.64146    0  759 -189.06424 -175.64146  7.10%     -  347s
     0     0 -175.74549    0  843 -189.06424 -175.74549  7.04%     -  352s
     0     0 -175.74549    0  838 -189.06424 -175.74549  7.04%     -  355s
     0     0 -175.99664    0  819 -189.06424 -175.99664  6.91%     -  364s
     0     0 -176.18520    0  841 -189.06424 -176.18520  6.81%     -  381s
     0     0 -176.19429    0  843 -189.06424 -176.19429  6.81%     -  384s
     0     0 -176.19726    0  843 -189.06424 -176.19726  6.81%     -  388s
     0     0 -176.19726    0  843 -189.06424 -176.19726  6.81%     -  392s
     0     0 -176.88380    0  787 -189.06424 -176.88380  6.44%     -  403s
     0     0 -177.03681    0  784 -189.06424 -177.03681  6.36%     -  409s
     0     0 -177.06858    0  787 -189.06424 -177.06858  6.34%     -  413s
     0     0 -177.08086    0  788 -189.06424 -177.08086  6.34%     -  417s
     0     0 -177.08234    0  788 -189.06424 -177.08234  6.34%     -  421s
     0     0 -177.08471    0  789 -189.06424 -177.08471  6.34%     -  423s
     0     0 -177.08471    0  787 -189.06424 -177.08471  6.34%     -  426s
     0     0 -177.71175    0  808 -189.06424 -177.71175  6.00%     -  436s
     0     0 -177.82830    0  819 -189.06424 -177.82830  5.94%     -  442s
     0     0 -177.83016    0  819 -189.06424 -177.83016  5.94%     -  445s
     0     0 -177.83115    0  825 -189.06424 -177.83115  5.94%     -  448s
     0     0 -177.97518    0  798 -189.06424 -177.97518  5.87%     -  457s
     0     0 -177.99028    0  796 -189.06424 -177.99028  5.86%     -  462s
     0     0 -178.00952    0  793 -189.06424 -178.00952  5.85%     -  466s
     0     0 -178.01458    0  799 -189.06424 -178.01458  5.84%     -  469s
     0     0 -178.02408    0  796 -189.06424 -178.02408  5.84%     -  473s
     0     0 -178.02408    0  799 -189.06424 -178.02408  5.84%     -  476s
     0     0 -178.20326    0  803 -189.06424 -178.20326  5.74%     -  487s
     0     0 -178.21241    0  802 -189.06424 -178.21241  5.74%     -  493s
     0     0 -178.21821    0  803 -189.06424 -178.21821  5.74%     -  496s
     0     0 -178.22045    0  804 -189.06424 -178.22045  5.74%     -  500s
     0     0 -178.22045    0  804 -189.06424 -178.22045  5.74%     -  503s
     0     0 -178.58412    0  820 -189.06424 -178.58412  5.54%     -  514s
     0     0 -178.90683    0  839 -189.06424 -178.90683  5.37%     -  525s
     0     0 -178.91264    0  843 -189.06424 -178.91264  5.37%     -  529s
     0     0 -178.91595    0  839 -189.06424 -178.91595  5.37%     -  532s
     0     0 -178.92617    0  843 -189.06424 -178.92617  5.36%     -  534s
     0     0 -179.30502    0  839 -189.06424 -179.30502  5.16%     -  543s
     0     0 -179.41775    0  841 -189.06424 -179.41775  5.10%     -  549s
     0     0 -179.42661    0  841 -189.06424 -179.42661  5.10%     -  553s
     0     0 -179.45061    0  841 -189.06424 -179.45061  5.08%     -  557s
     0     0 -179.45182    0  847 -189.06424 -179.45182  5.08%     -  560s
     0     0 -179.52683    0  844 -189.06424 -179.52683  5.04%     -  568s
     0     0 -179.56954    0  845 -189.06424 -179.56954  5.02%     -  580s
     0     0 -179.57245    0  843 -189.06424 -179.57245  5.02%     -  585s
     0     0 -179.58432    0  845 -189.06424 -179.58432  5.01%     -  588s
     0     0 -179.61627    0  839 -189.06424 -179.61627  5.00%     -  592s
     0     0 -179.61627    0  840 -189.06424 -179.61627  5.00%     -  595s
     0     0 -179.83752    0  842 -189.06424 -179.83752  4.88%     -  604s
     0     0 -180.12782    0  839 -189.06424 -180.12782  4.73%     -  611s
     0     0 -180.13426    0  842 -189.06424 -180.13426  4.72%     -  615s
     0     0 -180.13470    0  841 -189.06424 -180.13470  4.72%     -  618s
     0     0 -180.13503    0  753 -189.06424 -180.13503  4.72%     -  714s
     0     0 -180.13503    0  688 -189.06424 -180.13503  4.72%     -  800s
     0     0 -180.38890    0  639 -189.06424 -180.38890  4.59%     -  814s
     0     0 -182.36384    0  367 -189.06424 -182.36384  3.54%     -  822s
     0     0 -182.71690    0  674 -189.06424 -182.71690  3.36%     -  829s
     0     0 -182.91455    0  674 -189.06424 -182.91455  3.25%     -  831s
     0     0 -182.91455    0  675 -189.06424 -182.91455  3.25%     -  833s
     0     0 -183.50958    0  661 -189.06424 -183.50958  2.94%     -  853s
     0     0 -183.50958    0  522 -189.06424 -183.50958  2.94%     -  864s
     0     0 -183.74735    0  317 -189.06424 -183.74735  2.81%     -  865s
     0     0 -183.74735    0  317 -189.06424 -183.74735  2.81%     -  866s
     0     0 -184.34486    0  664 -189.06424 -184.34486  2.50%     -  866s
     0     0 -184.64682    0  592 -189.06424 -184.64682  2.34%     -  866s
     0     0 -184.78995    0  591 -189.06424 -184.78995  2.26%     -  867s
     0     0 -184.78995    0  587 -189.06424 -184.78995  2.26%     -  867s
     0     0 -184.92316    0  345 -189.06424 -184.92316  2.19%     -  867s
     0     0 -184.92316    0  352 -189.06424 -184.92316  2.19%     -  867s
     0     0 -184.93321    0  261 -189.06424 -184.93321  2.18%     -  868s
     0     0 -184.93321    0  259 -189.06424 -184.93321  2.18%     -  868s
     0     0 -185.02328    0  585 -189.06424 -185.02328  2.14%     -  868s
     0     0 -185.02328    0  611 -189.06424 -185.02328  2.14%     -  868s
     0     0 -185.02328    0  624 -189.06424 -185.02328  2.14%     -  869s
     0     0 -185.02328    0  614 -189.06424 -185.02328  2.14%     -  869s
     0     0 -185.02328    0  548 -189.06424 -185.02328  2.14%     -  871s
     0     0 -185.02328    0  600 -189.06424 -185.02328  2.14%     -  871s
     0     0 -185.05316    0  522 -189.06424 -185.05316  2.12%     -  873s
     0     0 -185.05316    0  524 -189.06424 -185.05316  2.12%     -  873s
     0     0 -185.05320    0  577 -189.06424 -185.05320  2.12%     -  874s
     0     0 -185.05320    0  580 -189.06424 -185.05320  2.12%     -  874s
     0     0 -185.12081    0  347 -189.06424 -185.12081  2.09%     -  875s
     0     0 -185.12081    0  360 -189.06424 -185.12081  2.09%     -  876s
     0     0 -185.32857    0  613 -189.06424 -185.32857  1.98%     -  876s
     0     0 -185.37863    0  652 -189.06424 -185.37863  1.95%     -  876s
     0     0 -185.38758    0  621 -189.06424 -185.38758  1.94%     -  877s
     0     0 -185.38758    0  623 -189.06424 -185.38758  1.94%     -  877s
     0     0 -185.53623    0  606 -189.06424 -185.53623  1.87%     -  877s
     0     0 -185.56028    0  610 -189.06424 -185.56028  1.85%     -  877s
     0     0 -185.57230    0  606 -189.06424 -185.57230  1.85%     -  878s
     0     0 -185.57230    0  631 -189.06424 -185.57230  1.85%     -  878s
     0     0 -185.57819    0  658 -189.06424 -185.57819  1.84%     -  878s
     0     0 -185.58089    0  660 -189.06424 -185.58089  1.84%     -  878s
     0     0 -185.58089    0  660 -189.06424 -185.58089  1.84%     -  878s
     0     0 -185.68054    0  596 -189.06424 -185.68054  1.79%     -  879s
     0     0 -185.79436    0  507 -189.06424 -185.79436  1.73%     -  879s
     0     0 -185.82222    0  604 -189.06424 -185.82222  1.71%     -  879s
     0     0 -185.82222    0  604 -189.06424 -185.82222  1.71%     -  879s
     0     0 -185.89448    0  398 -189.06424 -185.89448  1.68%     -  880s
     0     0 -185.89804    0  675 -189.06424 -185.89804  1.67%     -  880s
     0     0 -185.89804    0  671 -189.06424 -185.89804  1.67%     -  880s
     0     0 -185.90223    0  678 -189.06424 -185.90223  1.67%     -  880s
     0     0 -185.90223    0  680 -189.06424 -185.90223  1.67%     -  881s
     0     0 -186.05833    0  636 -189.06424 -186.05833  1.59%     -  882s
     0     0 -186.08135    0  653 -189.06424 -186.08135  1.58%     -  883s
     0     0 -186.10119    0  656 -189.06424 -186.10119  1.57%     -  883s
     0     0 -186.10394    0  653 -189.06424 -186.10394  1.57%     -  883s
     0     0 -186.10394    0  653 -189.06424 -186.10394  1.57%     -  883s
     0     0 -186.10394    0  656 -189.06424 -186.10394  1.57%     -  884s
     0     0 -186.10394    0  657 -189.06424 -186.10394  1.57%     -  884s
     0     0 -186.11724    0  666 -189.06424 -186.11724  1.56%     -  884s
     0     0 -186.12094    0  639 -189.06424 -186.12094  1.56%     -  885s
     0     0 -186.12114    0  638 -189.06424 -186.12114  1.56%     -  885s
     0     0 -186.12114    0  627 -189.06424 -186.12114  1.56%     -  886s
     0     0 -186.12114    0  627 -189.06424 -186.12114  1.56%     -  886s
     0     0 -186.12114    0  519 -189.06424 -186.12114  1.56%     -  889s
     0     0 -186.12114    0  567 -189.06424 -186.12114  1.56%     -  890s
     0     0 -186.12114    0  378 -189.06424 -186.12114  1.56%     -  891s
     0     0 -186.12114    0  664 -189.06424 -186.12114  1.56%     -  891s
     0     0 -186.12114    0  657 -189.06424 -186.12114  1.56%     -  891s
     0     0 -186.12114    0  663 -189.06424 -186.12114  1.56%     -  891s
     0     0 -186.12114    0  664 -189.06424 -186.12114  1.56%     -  891s
     0     0 -186.12114    0  665 -189.06424 -186.12114  1.56%     -  891s
     0     0 -186.12114    0  665 -189.06424 -186.12114  1.56%     -  892s
     0     0 -186.12114    0  660 -189.06424 -186.12114  1.56%     -  892s
     0     0 -186.13634    0  663 -189.06424 -186.13634  1.55%     -  892s
     0     0 -186.13634    0  664 -189.06424 -186.13634  1.55%     -  892s
     0     0 -186.13634    0  664 -189.06424 -186.13634  1.55%     -  893s
     0     0 -186.14732    0  618 -189.06424 -186.14732  1.54%     -  893s
     0     0 -186.14732    0  621 -189.06424 -186.14732  1.54%     -  893s
     0     0 -186.31188    0  619 -189.06424 -186.31188  1.46%     -  894s
     0     0 -186.31423    0  619 -189.06424 -186.31423  1.45%     -  894s
     0     0 -186.31519    0  623 -189.06424 -186.31519  1.45%     -  894s
     0     0 -186.32831    0  626 -189.06424 -186.32831  1.45%     -  895s
     0     0 -186.33563    0  631 -189.06424 -186.33563  1.44%     -  895s
     0     0 -186.33672    0  625 -189.06424 -186.33672  1.44%     -  895s
     0     0 -186.38277    0  605 -189.06424 -186.38277  1.42%     -  896s
     0     0 -186.39078    0  633 -189.06424 -186.39078  1.41%     -  896s
     0     0 -186.39714    0  628 -189.06424 -186.39714  1.41%     -  896s
     0     0 -186.39714    0  629 -189.06424 -186.39714  1.41%     -  896s
     0     0 -186.39714    0  630 -189.06424 -186.39714  1.41%     -  896s
     0     0 -186.39714    0  631 -189.06424 -186.39714  1.41%     -  897s
     0     0 -186.40803    0  633 -189.06424 -186.40803  1.40%     -  897s
     0     0 -186.53946    0  613 -189.06424 -186.53946  1.34%     -  898s
     0     0 -186.53946    0  610 -189.06424 -186.53946  1.34%     -  898s
     0     0 -186.53946    0  605 -189.06424 -186.53946  1.34%     -  898s
     0     0 -186.53946    0  610 -189.06424 -186.53946  1.34%     -  899s
     0     0 -186.56848    0  667 -189.06424 -186.56848  1.32%     -  899s
     0     0 -186.57570    0  663 -189.06424 -186.57570  1.32%     -  899s
     0     0 -186.57570    0  667 -189.06424 -186.57570  1.32%     -  899s
     0     0 -186.58495    0  685 -189.06424 -186.58495  1.31%     -  900s
     0     0 -186.58495    0  691 -189.06424 -186.58495  1.31%     -  900s
     0     0 -186.62044    0  612 -189.06424 -186.62044  1.29%     -  902s
     0     0 -186.62044    0  623 -189.06424 -186.62044  1.29%     -  902s
     0     0 -186.62044    0  625 -189.06424 -186.62044  1.29%     -  902s
     0     0 -186.62044    0  623 -189.06424 -186.62044  1.29%     -  902s
     0     0 -186.62266    0  676 -189.06424 -186.62266  1.29%     -  903s
     0     0 -186.62267    0  683 -189.06424 -186.62267  1.29%     -  903s
     0     0 -186.62285    0  682 -189.06424 -186.62285  1.29%     -  904s
     0     0 -186.62285    0  682 -189.06424 -186.62285  1.29%     -  905s
H    0     0                    -187.9981505 -186.62285  0.73%     -  905s
     0     2 -186.62365    0  682 -187.99815 -186.62365  0.73%     -  906s

Cutting planes:
  Gomory: 4
  Implied bound: 6
  Clique: 31
  MIR: 3
  Zero half: 113

Explored 13 nodes (122209 simplex iterations) in 907.26 seconds
Thread count was 1 (of 80 available processors)

Solution count 8: -187.998 -189.064 -189.064 ... -6778.74

Optimal solution found (tolerance 1.00e-04)
Best objective -1.879981505238e+02, best bound -1.879981505238e+02, gap 0.0000%
